c ENC1
p cnf 19 42
8 9 0
18 19 0
12 10 11 0
-8 -9 0
-18 -19 0
-12 -10 0
-12 -11 0
-10 -11 0
-8 6 0
-6 8 0
-9 7 0
-7 9 0
-8 -18 2 0
-2 8 0
-2 18 0
-8 -19 1 0
-1 8 0
-1 19 0
-9 -18 17 0
-17 9 0
-17 18 0
-9 -19 16 0
-16 9 0
-16 19 0
-8 -12 3 0
-3 8 0
-3 12 0
-8 -10 5 0
-5 8 0
-5 10 0
-8 -11 4 0
-4 8 0
-4 11 0
-9 -12 13 0
-13 9 0
-13 12 0
-9 -10 15 0
-15 9 0
-15 10 0
-9 -11 14 0
-14 9 0
-14 11 0
